NAME: tsp20_28
COMMENT: 20-tsp problem (Padberg/Rinaldi)
TYPE: TSP
DIMENSION: 20
EDGE_WEIGHT_TYPE : EUC_2D
NODE_COORD_SECTION
1 1 4
2 33 40
3 10 37
4 1 33
5 15 39
6 37 10
7 8 11
8 37 37
9 31 22
10 34 13
11 6 10
12 10 29
13 7 15
14 34 23
15 36 30
16 29 13
17 38 12
18 24 0
19 14 5
20 0 11
